p cnf 386 460
-15 16 -2 21 22 0
-15 16 -2 21 -22 0
-15 16 -2 -21 23 0
-15 16 -2 -21 -23 0
-15 -3 6 24 25 0
-15 -3 6 24 -25 0
-15 -3 6 -24 26 0
-15 -3 6 -24 -26 0
12 -6 -13 27 28 0
12 -6 -13 27 -28 0
12 -6 -13 -27 29 0
12 -6 -13 -27 -29 0
-2 16 -1 30 31 0
-2 16 -1 30 -31 0
-2 16 -1 -30 32 0
-2 16 -1 -30 -32 0
17 19 -1 33 34 0
17 19 -1 33 -34 0
17 19 -1 -33 35 0
17 19 -1 -33 -35 0
-16 -6 14 36 37 0
-16 -6 14 36 -37 0
-16 -6 14 -36 38 0
-16 -6 14 -36 -38 0
8 15 16 39 40 0
8 15 16 39 -40 0
8 15 16 -39 41 0
8 15 16 -39 -41 0
-13 -14 9 42 43 0
-13 -14 9 42 -43 0
-13 -14 9 -42 44 0
-13 -14 9 -42 -44 0
-14 5 11 45 46 0
-14 5 11 45 -46 0
-14 5 11 -45 47 0
-14 5 11 -45 -47 0
-8 -3 11 48 49 0
-8 -3 11 48 -49 0
-8 -3 11 -48 50 0
-8 -3 11 -48 -50 0
-3 -8 20 51 52 0
-3 -8 20 51 -52 0
-3 -8 20 -51 53 0
-3 -8 20 -51 -53 0
-9 -13 -8 54 55 0
-9 -13 -8 54 -55 0
-9 -13 -8 -54 56 0
-9 -13 -8 -54 -56 0
8 13 -16 57 58 0
8 13 -16 57 -58 0
8 13 -16 -57 59 0
8 13 -16 -57 -59 0
14 -12 -11 60 61 0
14 -12 -11 60 -61 0
14 -12 -11 -60 62 0
14 -12 -11 -60 -62 0
12 15 -10 63 64 0
12 15 -10 63 -64 0
12 15 -10 -63 65 0
12 15 -10 -63 -65 0
11 -16 15 66 67 0
11 -16 15 66 -67 0
11 -16 15 -66 68 0
11 -16 15 -66 -68 0
13 -5 10 69 70 0
13 -5 10 69 -70 0
13 -5 10 -69 71 0
13 -5 10 -69 -71 0
-16 6 2 72 73 0
-16 6 2 72 -73 0
-16 6 2 -72 74 0
-16 6 2 -72 -74 0
12 20 -19 75 76 0
12 20 -19 75 -76 0
12 20 -19 -75 77 0
12 20 -19 -75 -77 0
-2 16 -6 78 79 0
-2 16 -6 78 -79 0
-2 16 -6 -78 80 0
-2 16 -6 -78 -80 0
7 -15 10 81 82 0
7 -15 10 81 -82 0
7 -15 10 -81 83 0
7 -15 10 -81 -83 0
-3 -12 7 84 85 0
-3 -12 7 84 -85 0
-3 -12 7 -84 86 0
-3 -12 7 -84 -86 0
2 16 -11 87 88 0
2 16 -11 87 -88 0
2 16 -11 -87 89 0
2 16 -11 -87 -89 0
11 20 17 90 91 0
11 20 17 90 -91 0
11 20 17 -90 92 0
11 20 17 -90 -92 0
1 -3 -16 93 94 0
1 -3 -16 93 -94 0
1 -3 -16 -93 95 0
1 -3 -16 -93 -95 0
1 20 -15 96 97 0
1 20 -15 96 -97 0
1 20 -15 -96 98 0
1 20 -15 -96 -98 0
-12 -3 6 99 100 0
-12 -3 6 99 -100 0
-12 -3 6 -99 101 0
-12 -3 6 -99 -101 0
-4 -16 1 102 103 0
-4 -16 1 102 -103 0
-4 -16 1 -102 104 0
-4 -16 1 -102 -104 0
-10 8 7 105 106 0
-10 8 7 105 -106 0
-10 8 7 -105 107 0
-10 8 7 -105 -107 0
20 11 3 108 109 0
20 11 3 108 -109 0
20 11 3 -108 110 0
20 11 3 -108 -110 0
-6 3 -17 111 112 0
-6 3 -17 111 -112 0
-6 3 -17 -111 113 0
-6 3 -17 -111 -113 0
8 6 16 114 115 0
8 6 16 114 -115 0
8 6 16 -114 116 0
8 6 16 -114 -116 0
9 -17 2 117 118 0
9 -17 2 117 -118 0
9 -17 2 -117 119 0
9 -17 2 -117 -119 0
-12 5 17 120 121 0
-12 5 17 120 -121 0
-12 5 17 -120 122 0
-12 5 17 -120 -122 0
5 3 -15 123 124 0
5 3 -15 123 -124 0
5 3 -15 -123 125 0
5 3 -15 -123 -125 0
10 14 1 126 127 0
10 14 1 126 -127 0
10 14 1 -126 128 0
10 14 1 -126 -128 0
-18 17 -10 129 130 0
-18 17 -10 129 -130 0
-18 17 -10 -129 131 0
-18 17 -10 -129 -131 0
-14 -11 8 132 133 0
-14 -11 8 132 -133 0
-14 -11 8 -132 134 0
-14 -11 8 -132 -134 0
-4 5 -8 135 136 0
-4 5 -8 135 -136 0
-4 5 -8 -135 137 0
-4 5 -8 -135 -137 0
-4 -8 15 138 139 0
-4 -8 15 138 -139 0
-4 -8 15 -138 140 0
-4 -8 15 -138 -140 0
16 -5 12 141 142 0
16 -5 12 141 -142 0
16 -5 12 -141 143 0
16 -5 12 -141 -143 0
-1 -10 -3 144 145 0
-1 -10 -3 144 -145 0
-1 -10 -3 -144 146 0
-1 -10 -3 -144 -146 0
-7 -9 -10 147 148 0
-7 -9 -10 147 -148 0
-7 -9 -10 -147 149 0
-7 -9 -10 -147 -149 0
-12 15 9 150 151 0
-12 15 9 150 -151 0
-12 15 9 -150 152 0
-12 15 9 -150 -152 0
13 17 6 153 154 0
13 17 6 153 -154 0
13 17 6 -153 155 0
13 17 6 -153 -155 0
4 12 6 156 157 0
4 12 6 156 -157 0
4 12 6 -156 158 0
4 12 6 -156 -158 0
-13 -2 9 159 160 0
-13 -2 9 159 -160 0
-13 -2 9 -159 161 0
-13 -2 9 -159 -161 0
20 -4 -9 162 163 0
20 -4 -9 162 -163 0
20 -4 -9 -162 164 0
20 -4 -9 -162 -164 0
-6 7 -14 165 166 0
-6 7 -14 165 -166 0
-6 7 -14 -165 167 0
-6 7 -14 -165 -167 0
18 15 -12 168 169 0
18 15 -12 168 -169 0
18 15 -12 -168 170 0
18 15 -12 -168 -170 0
4 6 5 171 172 0
4 6 5 171 -172 0
4 6 5 -171 173 0
4 6 5 -171 -173 0
15 -2 6 174 175 0
15 -2 6 174 -175 0
15 -2 6 -174 176 0
15 -2 6 -174 -176 0
-6 14 -5 177 178 0
-6 14 -5 177 -178 0
-6 14 -5 -177 179 0
-6 14 -5 -177 -179 0
15 9 7 180 181 0
15 9 7 180 -181 0
15 9 7 -180 182 0
15 9 7 -180 -182 0
-4 1 3 183 184 0
-4 1 3 183 -184 0
-4 1 3 -183 185 0
-4 1 3 -183 -185 0
-7 -6 -11 186 187 0
-7 -6 -11 186 -187 0
-7 -6 -11 -186 188 0
-7 -6 -11 -186 -188 0
16 -10 -2 189 190 0
16 -10 -2 189 -190 0
16 -10 -2 -189 191 0
16 -10 -2 -189 -191 0
1 -20 -10 192 193 0
1 -20 -10 192 -193 0
1 -20 -10 -192 194 0
1 -20 -10 -192 -194 0
-5 -8 20 195 196 0
-5 -8 20 195 -196 0
-5 -8 20 -195 197 0
-5 -8 20 -195 -197 0
-19 3 2 198 199 0
-19 3 2 198 -199 0
-19 3 2 -198 200 0
-19 3 2 -198 -200 0
-1 11 -17 201 202 0
-1 11 -17 201 -202 0
-1 11 -17 -201 203 0
-1 11 -17 -201 -203 0
7 15 -19 204 205 0
7 15 -19 204 -205 0
7 15 -19 -204 206 0
7 15 -19 -204 -206 0
-7 8 -4 207 208 0
-7 8 -4 207 -208 0
-7 8 -4 -207 209 0
-7 8 -4 -207 -209 0
16 -9 7 210 211 0
16 -9 7 210 -211 0
16 -9 7 -210 212 0
16 -9 7 -210 -212 0
-4 1 -7 213 214 0
-4 1 -7 213 -214 0
-4 1 -7 -213 215 0
-4 1 -7 -213 -215 0
17 18 9 216 217 0
17 18 9 216 -217 0
17 18 9 -216 218 0
17 18 9 -216 -218 0
14 18 -3 219 220 0
14 18 -3 219 -220 0
14 18 -3 -219 221 0
14 18 -3 -219 -221 0
-7 -14 -1 222 223 0
-7 -14 -1 222 -223 0
-7 -14 -1 -222 224 0
-7 -14 -1 -222 -224 0
14 4 -12 225 226 0
14 4 -12 225 -226 0
14 4 -12 -225 227 0
14 4 -12 -225 -227 0
-5 12 8 228 229 0
-5 12 8 228 -229 0
-5 12 8 -228 230 0
-5 12 8 -228 -230 0
-15 12 -18 231 232 0
-15 12 -18 231 -232 0
-15 12 -18 -231 233 0
-15 12 -18 -231 -233 0
-19 -6 -1 234 235 0
-19 -6 -1 234 -235 0
-19 -6 -1 -234 236 0
-19 -6 -1 -234 -236 0
-17 12 -9 237 238 0
-17 12 -9 237 -238 0
-17 12 -9 -237 239 0
-17 12 -9 -237 -239 0
5 -1 15 240 241 0
5 -1 15 240 -241 0
5 -1 15 -240 242 0
5 -1 15 -240 -242 0
2 20 -3 243 244 0
2 20 -3 243 -244 0
2 20 -3 -243 245 0
2 20 -3 -243 -245 0
16 14 -12 246 247 0
16 14 -12 246 -247 0
16 14 -12 -246 248 0
16 14 -12 -246 -248 0
-8 10 7 249 250 0
-8 10 7 249 -250 0
-8 10 7 -249 251 0
-8 10 7 -249 -251 0
-11 12 -16 252 253 0
-11 12 -16 252 -253 0
-11 12 -16 -252 254 0
-11 12 -16 -252 -254 0
-1 -4 -15 255 256 0
-1 -4 -15 255 -256 0
-1 -4 -15 -255 257 0
-1 -4 -15 -255 -257 0
-12 -15 -3 258 259 0
-12 -15 -3 258 -259 0
-12 -15 -3 -258 260 0
-12 -15 -3 -258 -260 0
-12 14 -4 261 262 0
-12 14 -4 261 -262 0
-12 14 -4 -261 263 0
-12 14 -4 -261 -263 0
2 -11 14 264 265 0
2 -11 14 264 -265 0
2 -11 14 -264 266 0
2 -11 14 -264 -266 0
-20 -9 13 267 268 0
-20 -9 13 267 -268 0
-20 -9 13 -267 269 0
-20 -9 13 -267 -269 0
-14 11 3 270 271 0
-14 11 3 270 -271 0
-14 11 3 -270 272 0
-14 11 3 -270 -272 0
15 19 14 273 274 0
15 19 14 273 -274 0
15 19 14 -273 275 0
15 19 14 -273 -275 0
10 -17 -11 276 277 0
10 -17 -11 276 -277 0
10 -17 -11 -276 278 0
10 -17 -11 -276 -278 0
-15 2 -6 279 280 0
-15 2 -6 279 -280 0
-15 2 -6 -279 281 0
-15 2 -6 -279 -281 0
9 -1 2 282 283 0
9 -1 2 282 -283 0
9 -1 2 -282 284 0
9 -1 2 -282 -284 0
-10 8 -13 285 286 0
-10 8 -13 285 -286 0
-10 8 -13 -285 287 0
-10 8 -13 -285 -287 0
12 19 -18 288 289 0
12 19 -18 288 -289 0
12 19 -18 -288 290 0
12 19 -18 -288 -290 0
15 -17 -16 291 292 0
15 -17 -16 291 -292 0
15 -17 -16 -291 293 0
15 -17 -16 -291 -293 0
294 295 297 301 309 0
294 295 297 301 -309 0
294 295 297 -301 310 0
294 295 297 -301 -310 0
294 295 -297 302 311 0
294 295 -297 302 -311 0
294 295 -297 -302 312 0
294 295 -297 -302 -312 0
294 -295 298 303 313 0
294 -295 298 303 -313 0
294 -295 298 -303 314 0
294 -295 298 -303 -314 0
294 -295 -298 304 315 0
294 -295 -298 304 -315 0
294 -295 -298 -304 316 0
294 -295 -298 -304 -316 0
-294 296 299 305 317 0
-294 296 299 305 -317 0
-294 296 299 -305 318 0
-294 296 299 -305 -318 0
-294 296 -299 306 319 0
-294 296 -299 306 -319 0
-294 296 -299 -306 320 0
-294 296 -299 -306 -320 0
-294 -296 300 307 321 0
-294 -296 300 307 -321 0
-294 -296 300 -307 322 0
-294 -296 300 -307 -322 0
-294 -296 -300 308 323 0
-294 -296 -300 308 -323 0
-294 -296 -300 -308 324 0
-294 -296 -300 -308 -324 0
325 326 328 332 340 0
325 326 328 332 -340 0
325 326 328 -332 341 0
325 326 328 -332 -341 0
325 326 -328 333 342 0
325 326 -328 333 -342 0
325 326 -328 -333 343 0
325 326 -328 -333 -343 0
325 -326 329 334 344 0
325 -326 329 334 -344 0
325 -326 329 -334 345 0
325 -326 329 -334 -345 0
325 -326 -329 335 346 0
325 -326 -329 335 -346 0
325 -326 -329 -335 347 0
325 -326 -329 -335 -347 0
-325 327 330 336 348 0
-325 327 330 336 -348 0
-325 327 330 -336 349 0
-325 327 330 -336 -349 0
-325 327 -330 337 350 0
-325 327 -330 337 -350 0
-325 327 -330 -337 351 0
-325 327 -330 -337 -351 0
-325 -327 331 338 352 0
-325 -327 331 338 -352 0
-325 -327 331 -338 353 0
-325 -327 331 -338 -353 0
-325 -327 -331 339 354 0
-325 -327 -331 339 -354 0
-325 -327 -331 -339 355 0
-325 -327 -331 -339 -355 0
356 357 359 363 371 0
356 357 359 363 -371 0
356 357 359 -363 372 0
356 357 359 -363 -372 0
356 357 -359 364 373 0
356 357 -359 364 -373 0
356 357 -359 -364 374 0
356 357 -359 -364 -374 0
356 -357 360 365 375 0
356 -357 360 365 -375 0
356 -357 360 -365 376 0
356 -357 360 -365 -376 0
356 -357 -360 366 377 0
356 -357 -360 366 -377 0
356 -357 -360 -366 378 0
356 -357 -360 -366 -378 0
-356 358 361 367 379 0
-356 358 361 367 -379 0
-356 358 361 -367 380 0
-356 358 361 -367 -380 0
-356 358 -361 368 381 0
-356 358 -361 368 -381 0
-356 358 -361 -368 382 0
-356 358 -361 -368 -382 0
-356 -358 362 369 383 0
-356 -358 362 369 -383 0
-356 -358 362 -369 384 0
-356 -358 362 -369 -384 0
-356 -358 -362 370 385 0
-356 -358 -362 370 -385 0
-356 -358 -362 -370 386 0
-356 -358 -362 -370 -386 0

